(set-info :smt-lib-version 2.6)
(set-logic QF_UFLRA)
(set-info :source |
MathSat group

|)
(set-info :category "random")
(set-info :status unsat)
(declare-fun f0_1 (Real) Real)
(declare-fun f0_2 (Real Real) Real)
(declare-fun f0_3 (Real Real Real) Real)
(declare-fun f0_4 (Real Real Real Real) Real)
(declare-fun f1_1 (Real) Real)
(declare-fun f1_2 (Real Real) Real)
(declare-fun f1_3 (Real Real Real) Real)
(declare-fun f1_4 (Real Real Real Real) Real)
(declare-fun x0 () Real)
(declare-fun x1 () Real)
(declare-fun x2 () Real)
(declare-fun x3 () Real)
(declare-fun x4 () Real)
(declare-fun x5 () Real)
(declare-fun x6 () Real)
(declare-fun x7 () Real)
(declare-fun x8 () Real)
(declare-fun x9 () Real)
(declare-fun P0 () Bool)
(declare-fun P1 () Bool)
(declare-fun P2 () Bool)
(declare-fun P3 () Bool)
(declare-fun P4 () Bool)
(declare-fun P5 () Bool)
(declare-fun P6 () Bool)
(declare-fun P7 () Bool)
(declare-fun P8 () Bool)
(declare-fun P9 () Bool)
(assert (let ((?v_1 (f1_1 x3)) (?v_7 (f0_1 x1)) (?v_8 (* 7 x7)) (?v_61 (f0_2 x9 x4)) (?v_10 (f0_2 x9 x0)) (?v_16 (f1_1 x9)) (?v_5 (- (+ (* 6 x6) (* 15 x4)) (* 26 x5)))) (let ((?v_22 (- (- (* 6 (f1_2 ?v_1 x2)) (* 12 ?v_61)) (* 22 x0))) (?v_18 (- (- (* 6 x3) (* 2 x2)) (* 8 x8))) (?v_17 (+ (- (* 22 x8) (* 22 x3)) (* 7 ?v_7))) (?v_32 (f0_1 ?v_5)) (?v_54 (< x5 27)) (?v_42 (< (f0_1 x2) 1)) (?v_104 (< ?v_10 1))) (let ((?v_36 (< ?v_18 22)) (?v_71 (< (f0_2 x5 x1) 23)) (?v_15 (< ?v_10 29)) (?v_41 (= x0 ?v_1)) (?v_105 (< x4 16)) (?v_64 (< x5 5)) (?v_52 (< ?v_16 20)) (?v_76 (< x3 8)) (?v_111 (< ?v_7 20)) (?v_25 (< ?v_7 22)) (?v_29 (< ?v_17 27)) (?v_2 (< x4 17))) (let ((?v_9 (not ?v_2)) (?v_124 (not ?v_104)) (?v_45 (not ?v_54)) (?v_106 (not ?v_42)) (?v_34 (not P6)) (?v_68 (not ?v_15)) (?v_66 (not P3)) (?v_67 (not ?v_29)) (?v_102 (not ?v_105)) (?v_113 (not P2)) (?v_120 (not P5)) (?v_80 (not ?v_25)) (?v_57 (not ?v_76)) (?v_92 (not ?v_36)) (?v_91 (not ?v_41)) (?v_123 (not ?v_64)) (?v_116 (not P9)) (?v_94 (not P7)) (?v_100 (not P8)) (?v_119 (not ?v_52)) (?v_112 (not ?v_111)) (?v_128 (not P4)) (?v_115 (not ?v_71)) (?v_126 (not P1)) (?v_12 (+ (* 21 x7) (* 14 x4) (* 27 x5)))) (let ((?v_50 (= ?v_12 (f1_1 (f1_2 x5 x8))))) (let ((?v_72 (not ?v_50)) (?v_3 (+ (* (- 17) x0) (* 3 x7) (* 12 x2))) (?v_0 (- (+ (* (- 12) x7) (* 28 x9)) (* 23 x6)))) (let ((?v_38 (f1_2 ?v_1 ?v_0)) (?v_20 (- (+ (* (- 3) x1) (* 8 x3)) (* 2 x5)))) (let ((?v_13 (- (- (* 26 (+ (* 10 ?v_3) ?v_7 (* 6 ?v_0))) (* 5 ?v_38)) (* 25 ?v_20)))) (let ((?v_27 (< ?v_13 (- 12))) (?v_73 (< ?v_32 (- 25)))) (let ((?v_117 (not ?v_73)) (?v_4 (- (+ (* (- 24) x3) (* 28 x3)) ?v_8))) (let ((?v_58 (= ?v_4 x1)) (?v_89 (< ?v_22 (- 5)))) (let ((?v_51 (not ?v_89)) (?v_55 (< ?v_16 (- 2)))) (let ((?v_75 (not ?v_55)) (?v_6 (< ?v_3 (- 24)))) (let ((?v_77 (not ?v_6)) (?v_28 (< x5 (- 10)))) (let ((?v_43 (not ?v_28)) (?v_23 (< ?v_4 (- 20))) (?v_53 (< ?v_4 20)) (?v_69 (< ?v_5 (- 15))) (?v_30 (- (- (* (- 26) x1) (* 5 x4)) ?v_8))) (let ((?v_11 (< ?v_30 (- 29))) (?v_14 (< ?v_12 (- 16))) (?v_59 (- (+ (* (- 8) x7) (* 16 ?v_7)) (* 11 x9)))) (let ((?v_122 (< ?v_59 (- 19))) (?v_101 (not ?v_11)) (?v_37 (< ?v_13 (- 16))) (?v_35 (< (f0_2 x1 x0) (- 5))) (?v_24 (< ?v_16 (- 12))) (?v_21 (< ?v_18 (- 15))) (?v_31 (< ?v_3 (- 3))) (?v_26 (< (- (- (* (- 7) x1) x2) (* 19 x8)) (- 14))) (?v_65 (< ?v_17 (- 12))) (?v_60 (< (- (+ (* (- 2) x9) (* 15 x5)) (* 27 x2)) (- 18)))) (let ((?v_19 (not ?v_60)) (?v_46 (= ?v_7 ?v_20))) (let ((?v_39 (not ?v_46)) (?v_70 (< ?v_22 (- 22)))) (let ((?v_96 (not ?v_70)) (?v_93 (not ?v_24)) (?v_33 (not ?v_26)) (?v_109 (not ?v_27)) (?v_40 (< ?v_20 7))) (let ((?v_81 (not ?v_40)) (?v_83 (< ?v_30 (- 18)))) (let ((?v_78 (not ?v_83)) (?v_47 (< ?v_32 (- 17)))) (let ((?v_49 (not ?v_47)) (?v_63 (= (- (+ (* (- 4) x9) (* 29 x3)) (* 23 x2)) x4)) (?v_48 (< ?v_38 (- 20)))) (let ((?v_79 (not ?v_48)) (?v_44 (or ?v_40 ?v_91)) (?v_74 (not ?v_37)) (?v_56 (not ?v_14)) (?v_86 (not ?v_58)) (?v_62 (< (f1_1 ?v_59) 10)) (?v_103 (< ?v_61 (- 10)))) (let ((?v_84 (not ?v_103)) (?v_87 (not ?v_63)) (?v_95 (not ?v_23)) (?v_82 (< ?v_10 (- 20))) (?v_125 (not ?v_53)) (?v_85 (not ?v_62)) (?v_90 (not ?v_35)) (?v_114 (< ?v_38 (- 4)))) (let ((?v_108 (not ?v_114)) (?v_88 (< (f0_1 x6) (- 18))) (?v_98 (not ?v_65))) (let ((?v_129 (or ?v_75 ?v_98)) (?v_97 (not ?v_82)) (?v_99 (not ?v_69)) (?v_118 (< x9 (- 21)))) (let ((?v_107 (not ?v_118)) (?v_121 (not ?v_88)) (?v_110 (not ?v_31)) (?v_127 (not ?v_122))) (and (and (and (and (and (and (and (and (and (and (and (and (and (and (and (and (and (and (and (and (and (and (and (and (and (and (and (and (and (and (and (and (and (and (and (and (and (and (and (and (and (and (and (and (and (and (and (and (and (and (and (and (and (and (and (and (and (and (and (and (and (and (and (and (and (and (and (and (and (and (and (and (and (and (and (and (and (and (and (and (and (and (and (and (and (and (and (and (and (and (and (and (and (and (and (and (and (and (and (and (and (and (and (and (and (and (and (and (and (and (and (and (and (and (and (and (and (and (and (and (and (and (and (and (and (and (and (and (and (and (and (and (and (and (and (and (and (and (and (and (and (and (and (and (and (and (and (and (and (and (and (and (and (and (and (and (and (and (and (and (and (and (and (and (and (and (and (and (and (and (and (and (and (and (and (and (and (and (and (and (and (and (and (and (and (and (and (and (and (and (and (and (and (and (and (and (and (and (and (and (and (and (and (and (and (and (and (and (and (and (and (and (and (and (and (and (and (and (and (and (and (and (and (and (and (and (and (and (and (and (and (and (and (and (and (and (and (and (and (and (and (and (and (and (and (and (and (and (and (or (or ?v_27 ?v_9) ?v_117) (or (or ?v_58 ?v_51) ?v_75)) (or (or ?v_2 P4) ?v_77)) (or (or ?v_43 ?v_23) ?v_53)) (or (or ?v_69 ?v_6) ?v_124)) (or (or ?v_25 ?v_11) P9)) (or (or ?v_41 ?v_45) ?v_106)) (or (or ?v_9 ?v_34) ?v_68)) (or (or ?v_14 ?v_122) ?v_101)) (or (or P7 ?v_72) ?v_37)) (or (or ?v_66 ?v_35) ?v_14)) (or (or ?v_15 ?v_24) ?v_21)) (or (or ?v_31 ?v_67) ?v_26)) (or (or ?v_6 ?v_65) ?v_19)) (or (or ?v_36 ?v_19) P5)) (or (or ?v_102 ?v_39) ?v_21)) (or (or ?v_113 ?v_52) ?v_120)) (or (or ?v_96 ?v_23) ?v_93)) (or (or ?v_80 ?v_33) ?v_109)) (or (or ?v_81 ?v_57) ?v_28)) (or (or ?v_15 ?v_29) P1)) (or (or P8 ?v_78) ?v_31)) (or (or ?v_24 ?v_49) ?v_33)) (or (or ?v_34 ?v_33) P7)) (or (or ?v_35 ?v_92) ?v_15)) (or (or ?v_63 ?v_37) ?v_79)) (or (or ?v_39 ?v_39) ?v_14)) (or ?v_44 ?v_42)) (or (or ?v_74 ?v_43) ?v_9)) (or ?v_44 ?v_6)) (or (or ?v_45 ?v_42) ?v_56)) (or (or ?v_46 ?v_47) ?v_48)) (or (or ?v_49 ?v_50) ?v_51)) (or (or ?v_52 ?v_53) P5)) (or (or ?v_42 ?v_43) P0)) (or (or ?v_54 ?v_55) ?v_123)) (or (or ?v_42 ?v_56) ?v_35)) (or (or ?v_71 ?v_57) P0)) (or (or ?v_86 ?v_51) ?v_62)) (or (or ?v_60 ?v_84) ?v_62)) (or (or ?v_47 ?v_35) P0)) (or (or ?v_87 ?v_24) ?v_64)) (or (or ?v_95 ?v_65) ?v_34)) (or (or ?v_66 ?v_82) ?v_67)) (or (or ?v_50 ?v_68) ?v_69)) (or (or ?v_57 ?v_70) ?v_40)) (or (or ?v_2 P3) ?v_26)) (or (or ?v_35 ?v_57) ?v_71)) (or (or P5 ?v_72) ?v_71)) (or (or ?v_125 ?v_85) ?v_90)) (or (or ?v_65 ?v_73) ?v_46)) (or (or P5 ?v_108) ?v_49)) (or (or ?v_60 ?v_51) ?v_88)) (or (or ?v_27 ?v_6) ?v_47)) (or (or ?v_6 ?v_74) ?v_29)) (or ?v_129 ?v_76)) (or (or P3 ?v_77) ?v_78)) (or (or ?v_79 ?v_80) ?v_116)) (or (or ?v_57 ?v_81) ?v_97)) (or (or ?v_83 ?v_84) ?v_21)) (or (or ?v_43 ?v_85) ?v_86)) (or (or ?v_99 ?v_46) ?v_41)) (or (or ?v_107 ?v_31) ?v_87)) (or (or ?v_58 ?v_83) ?v_88)) (or (or ?v_74 ?v_19) ?v_94)) (or (or ?v_50 P6) ?v_89)) (or (or ?v_9 ?v_73) ?v_56)) (or (or ?v_27 ?v_62) ?v_69)) (or (or ?v_100 ?v_6) ?v_90)) (or (or ?v_9 ?v_15) ?v_19)) (or (or ?v_91 P3) ?v_28)) (or (or ?v_47 ?v_69) ?v_92)) (or (or ?v_91 ?v_27) ?v_28)) (or (or P0 ?v_50) ?v_25)) (or (or P5 P1) ?v_6)) (or (or ?v_63 ?v_93) ?v_27)) (or (or ?v_94 ?v_80) ?v_83)) (or (or ?v_119 ?v_58) ?v_33)) (or (or ?v_66 ?v_84) ?v_89)) (or (or ?v_94 ?v_78) ?v_42)) (or (or ?v_49 P5) ?v_78)) (or (or ?v_83 ?v_92) ?v_95)) (or (or ?v_96 ?v_65) ?v_89)) (or (or ?v_97 ?v_98) ?v_99)) (or (or ?v_84 ?v_77) ?v_53)) (or (or ?v_29 ?v_82) ?v_51)) (or (or ?v_31 ?v_100) ?v_62)) (or (or ?v_21 P5) ?v_76)) (or (or ?v_23 ?v_74) ?v_65)) (or (or ?v_62 ?v_2) ?v_77)) (or (or ?v_40 ?v_101) ?v_95)) (or (or ?v_121 ?v_102) ?v_82)) (or (or ?v_73 ?v_85) ?v_112)) (or (or ?v_84 ?v_103) ?v_43)) (or (or ?v_80 ?v_57) ?v_86)) (or (or ?v_104 ?v_36) ?v_94)) (or (or ?v_21 ?v_91) ?v_49)) (or (or ?v_105 ?v_48) ?v_96)) (or (or ?v_103 P8) ?v_89)) (or (or ?v_31 ?v_91) ?v_106)) (or (or ?v_95 ?v_110) ?v_128)) (or (or ?v_75 ?v_103) ?v_2)) (or (or ?v_76 ?v_107) ?v_108)) (or (or ?v_89 ?v_109) ?v_28)) (or (or ?v_68 ?v_86) ?v_64)) (or (or ?v_45 P9) ?v_39)) (or (or ?v_23 ?v_110) ?v_9)) (or (or ?v_81 ?v_92) ?v_86)) (or (or ?v_56 ?v_9) ?v_95)) (or (or ?v_111 ?v_90) ?v_79)) (or (or ?v_28 ?v_54) ?v_84)) (or (or ?v_98 ?v_90) ?v_41)) (or (or ?v_96 ?v_93) ?v_84)) (or (or ?v_46 ?v_50) ?v_87)) (or (or P0 ?v_96) ?v_111)) (or (or ?v_94 ?v_67) ?v_49)) (or (or ?v_104 ?v_112) ?v_109)) (or (or ?v_50 ?v_51) ?v_29)) (or (or ?v_47 ?v_60) ?v_41)) (or (or ?v_105 ?v_54) ?v_39)) (or (or ?v_86 ?v_14) ?v_53)) (or (or ?v_60 ?v_82) ?v_40)) (or (or ?v_115 ?v_96) ?v_51)) (or (or ?v_34 ?v_113) ?v_86)) (or (or ?v_31 ?v_29) ?v_126)) (or (or ?v_62 ?v_6) ?v_75)) (or (or ?v_114 ?v_115) ?v_116)) (or (or ?v_47 (not ?v_21)) ?v_35)) (or (or P5 ?v_117) ?v_71)) (or (or P1 ?v_69) ?v_100)) (or (or ?v_46 ?v_65) ?v_71)) (or (or ?v_21 ?v_23) ?v_57)) (or (or ?v_9 ?v_118) ?v_75)) (or (or ?v_97 ?v_93) ?v_115)) (or (or ?v_108 ?v_21) ?v_83)) (or (or ?v_92 ?v_73) ?v_51)) (or (or ?v_119 ?v_40) ?v_67)) (or (or ?v_36 ?v_118) ?v_87)) (or (or P2 P6) ?v_49)) (or (or ?v_58 ?v_74) ?v_120)) (or (or ?v_68 ?v_57) ?v_25)) (or (or ?v_34 P4) ?v_88)) (or (or ?v_37 ?v_96) ?v_75)) (or (or ?v_83 ?v_121) ?v_27)) (or (or ?v_122 ?v_119) ?v_93)) (or (or ?v_96 ?v_116) ?v_77)) (or (or P4 ?v_101) ?v_39)) (or (or ?v_92 ?v_14) ?v_75)) (or (or ?v_73 ?v_90) ?v_92)) (or (or ?v_107 P3) ?v_123)) (or (or ?v_81 ?v_24) ?v_66)) (or (or ?v_83 ?v_71) ?v_90)) (or (or ?v_24 P2) ?v_19)) (or (or ?v_53 ?v_29) ?v_33)) (or (or ?v_26 ?v_46) ?v_82)) (or (or ?v_109 ?v_117) ?v_56)) (or (or ?v_41 ?v_53) ?v_124)) (or (or ?v_104 ?v_105) ?v_26)) (or (or ?v_89 ?v_125) ?v_112)) (or (or ?v_114 ?v_100) P5)) (or (or ?v_102 ?v_6) ?v_31)) (or (or ?v_87 ?v_36) ?v_50)) (or (or ?v_126 ?v_127) ?v_31)) (or (or ?v_54 ?v_77) ?v_99)) (or (or ?v_109 ?v_84) ?v_15)) (or (or ?v_34 ?v_114) P3)) (or (or ?v_58 ?v_88) P8)) (or (or ?v_73 ?v_70) P7)) (or (or ?v_42 ?v_14) ?v_46)) (or (or ?v_36 ?v_99) ?v_75)) (or (or ?v_82 ?v_25) P0)) (or (or ?v_118 ?v_28) ?v_90)) (or (or ?v_98 ?v_110) P8)) (or (or ?v_9 ?v_87) ?v_90)) (or (or ?v_79 ?v_126) ?v_15)) (or (or ?v_120 ?v_53) P6)) (or (or ?v_41 ?v_51) ?v_64)) (or (or ?v_72 ?v_50) ?v_27)) (or (or ?v_99 ?v_19) ?v_6)) (or (or ?v_127 ?v_128) ?v_23)) (or (or P1 ?v_126) ?v_113)) (or (or ?v_40 ?v_109) ?v_86)) (or (or ?v_53 ?v_53) ?v_58)) (or (or P8 ?v_111) ?v_78)) (or (or ?v_90 ?v_2) ?v_65)) (or (or ?v_37 ?v_106) ?v_60)) (or (or ?v_100 ?v_64) ?v_104)) (or (or ?v_90 ?v_90) ?v_85)) (or (or ?v_48 ?v_70) ?v_19)) (or (or ?v_123 ?v_114) ?v_71)) (or (or ?v_14 ?v_77) ?v_72)) (or ?v_129 ?v_94)) (or (or ?v_111 ?v_11) ?v_114)) (or (or ?v_71 ?v_51) ?v_93)) (or (or ?v_26 ?v_64) ?v_40)) (or (or ?v_9 ?v_82) ?v_116)) (or (or ?v_114 ?v_84) ?v_45)) (or (or P5 ?v_46) ?v_105)) (or (or ?v_78 ?v_27) ?v_89)) (or (or ?v_11 ?v_34) ?v_94)) (or (or ?v_40 ?v_86) ?v_93)) (or (or ?v_57 ?v_107) ?v_58)) (or (or ?v_96 ?v_79) ?v_6)) (or (or ?v_55 ?v_100) ?v_15)) (or (or P8 ?v_45) ?v_95)) (or (or ?v_104 ?v_27) ?v_82)) (or (or P8 ?v_35) ?v_97)) (or (or ?v_103 ?v_78) ?v_50)) (or (or ?v_119 ?v_60) ?v_116)) (or (or ?v_73 ?v_108) ?v_100)) (or (or ?v_73 ?v_36) ?v_11)) (or (or ?v_112 ?v_119) ?v_96)) (or (or P5 ?v_14) ?v_76)) (or (or ?v_46 ?v_70) ?v_93)) (or (or ?v_57 ?v_25) ?v_119)) (or (or ?v_42 ?v_118) ?v_123)) (or (or ?v_116 P9) ?v_33)) (or (or ?v_48 ?v_51) ?v_74)) (or (or ?v_127 ?v_36) ?v_111)) (or (or ?v_50 ?v_53) ?v_101)) (or (or ?v_69 ?v_35) ?v_93)) (or (or ?v_78 P5) ?v_42)) (or (or ?v_87 ?v_11) ?v_77)) (or (or ?v_93 ?v_67) ?v_27)) (or (or P9 ?v_118) P8)) (or (or ?v_9 P5) ?v_27)) (or (or ?v_75 ?v_96) ?v_124)) (or (or ?v_40 P8) ?v_15)) (or (or ?v_15 ?v_110) ?v_21)) (or (or P4 ?v_67) ?v_24)) (or (or ?v_79 ?v_54) P2)) (or (or ?v_42 ?v_91) ?v_107)) (or (or ?v_58 ?v_95) ?v_114)) (or (or ?v_66 ?v_27) ?v_94)) (or (or ?v_66 ?v_116) ?v_43)) (or (or ?v_97 ?v_25) ?v_108)) (or (or (not P0) P3) ?v_37)) (or (or ?v_123 P9) ?v_114)) (or (or ?v_88 ?v_69) ?v_28)) (or (or ?v_6 ?v_19) ?v_122)) (or (or ?v_100 ?v_100) ?v_11)) (or (or ?v_123 ?v_69) ?v_24)) (or (or ?v_48 ?v_47) ?v_31)) (or (or ?v_50 ?v_15) ?v_119)) (or (or ?v_37 ?v_79) ?v_45)) (or (or ?v_128 ?v_27) ?v_9)) (or (or ?v_87 ?v_81) ?v_47)) (or (or ?v_51 ?v_47) ?v_11)) (or (or P9 ?v_28) ?v_128)) (or (or ?v_27 ?v_94) ?v_123)))))))))))))))))))))))))))))))
(check-sat)
(exit)
